WARNING: for repeatability, setting FPU to use double precision
============================[ Problem Statistics ]=============================
|                                                                             |
|  Number of variables:           100                                         |
|  Number of clauses:             449                                         |
|  Parse time:                   0.00 s                                       |
|  Eliminated clauses:           0.00 Mb                                      |
|  Simplification time:          0.00 s                                       |
|                                                                             |
============================[ Search Statistics ]==============================
| Conflicts |          ORIGINAL         |          LEARNT          | Progress |
|           |    Vars  Clauses Literals |    Limit  Clauses Lit/Cl |          |
===============================================================================
|       100 |      98      436     1314 |      164       52      6 |  1.010 % |
|       250 |      97      426     1284 |      180       84      6 |  2.031 % |
===============================================================================
restarts              : 3
conflicts             : 382            (97748 /sec)
decisions             : 490            (0.00 % random) (125384 /sec)
propagations          : 9037           (2312436 /sec)
conflict literals     : 2052           (24.08 % deleted)
Memory used           : 13.00 MB
CPU time              : 0.003908 s

SATISFIABLE
